Data path: /scratch/opt/lxu/CFLG/benchmarks/random_A
Instance: r_15_0.1_14.txt
Result path: /scratch/opt/lxu/CFLG/results/random_A
Solver: Gurobi
Time limit: 7200
Formulation: LEFP
Cover: Large
julia --project=. src/main.jl /scratch/opt/lxu/CFLG/benchmarks/random_A r_15_0.1_14.txt /scratch/opt/lxu/CFLG/results/random_A Gurobi 7200 LEFP Large
The latest version of Julia in the `release` channel is 1.11.6+0.x64.linux.gnu. You currently have `1.11.4+0.x64.linux.gnu` installed. Run:

  juliaup update

in your terminal shell to install Julia 1.11.6+0.x64.linux.gnu and update the `release` channel to that version.
/scratch/opt/lxu/CFLG/benchmarks/random_A Gurobi 7200.0 /scratch/opt/lxu/CFLG/results/random_A r_15_0.1_14.txt LEFP Large
/scratch/opt/lxu/CFLG/benchmarks/random_A/r_15_0.1_14.txt

 read graph
data loaded

problem_graph/original graph: node: 15/15 edge: 14/14 dlt: 1.3060203950506006 break_avg_len: 0.6530101975253003 break_max_len: 0.9684685398380044Set parameter TokenServer to value "solice01.zib.de"
Set parameter Threads to value 1
Set parameter OutputFlag to value 1
Gurobi Optimizer version 12.0.1 build v12.0.1rc0 (linux64 - "Debian GNU/Linux 12 (bookworm)")

CPU model: Intel(R) Xeon(R) Gold 5222 CPU @ 3.80GHz, instruction set [SSE2|AVX|AVX2|AVX512]
Thread count: 8 physical cores, 16 logical processors, using up to 1 threads

Non-default parameters:
Threads  1

Optimize a model with 29 rows, 42 columns and 70 nonzeros
Model fingerprint: 0x71bc708d
Coefficient statistics:
  Matrix range     [1e+00, 1e+00]
  Objective range  [1e+00, 1e+00]
  Bounds range     [1e+00, 1e+00]
  RHS range        [1e+00, 1e+00]
Presolve removed 29 rows and 42 columns
Presolve time: 0.00s
Presolve: All rows and columns removed
Iteration    Objective       Primal Inf.    Dual Inf.      Time
       0    9.0000000e+00   0.000000e+00   0.000000e+00      0s

Solved in 0 iterations and 0.00 seconds (0.00 work units)
Optimal objective  9.000000000e+00

User-callback calls 96, time in user-callback 0.00 sec
elapsed CPU time: 0.897341 seconds
Set parameter TokenServer to value "solice01.zib.de"
Set parameter Threads to value 1
Set parameter OutputFlag to value 1
Set parameter MIPGap to value 0.0001
Set parameter TimeLimit to value 7199.102659

 more cuts: false 1.3060203950506006 false
is_attach:falseformulation:LEFP0 14 15

 model loaded

Gurobi Optimizer version 12.0.1 build v12.0.1rc0 (linux64 - "Debian GNU/Linux 12 (bookworm)")

CPU model: Intel(R) Xeon(R) Gold 5222 CPU @ 3.80GHz, instruction set [SSE2|AVX|AVX2|AVX512]
Thread count: 8 physical cores, 16 logical processors, using up to 1 threads

Non-default parameters:
TimeLimit  7199.102659
Threads  1

Optimize a model with 317 rows, 173 columns and 834 nonzeros
Model fingerprint: 0x0cefedf3
Variable types: 43 continuous, 130 integer (130 binary)
Coefficient statistics:
  Matrix range     [1e-06, 2e+00]
  Objective range  [1e+00, 1e+00]
  Bounds range     [3e-01, 1e+00]
  RHS range        [3e-01, 2e+00]
Found heuristic solution: objective 6.0000000
Presolve removed 145 rows and 68 columns
Presolve time: 0.01s
Presolved: 172 rows, 105 columns, 621 nonzeros
Variable types: 23 continuous, 82 integer (82 binary)

Root relaxation: objective 3.000000e+00, 94 iterations, 0.00 seconds (0.00 work units)

    Nodes    |    Current Node    |     Objective Bounds      |     Work
 Expl Unexpl |  Obj  Depth IntInf | Incumbent    BestBd   Gap | It/Node Time

     0     0    3.00000    0   21    6.00000    3.00000  50.0%     -    0s
H    0     0                       5.0000000    3.00000  40.0%     -    0s
H    0     0                       4.0000000    3.00000  25.0%     -    0s
     0     0    3.00000    0   34    4.00000    3.00000  25.0%     -    0s
     0     0    3.00000    0   30    4.00000    3.00000  25.0%     -    0s
     0     0 infeasible    0         4.00000    4.00000  0.00%     -    0s

Cutting planes:
  Gomory: 1
  Cover: 3
  Implied bound: 3
  MIR: 7
  BQP: 1

Explored 1 nodes (274 simplex iterations) in 0.02 seconds (0.01 work units)
Thread count was 1 (of 16 available processors)

Solution count 3: 4 5 6 

Optimal solution found (tolerance 1.00e-04)
Best objective 4.000000000000e+00, best bound 4.000000000000e+00, gap 0.0000%

User-callback calls 810, time in user-callback 0.00 sec

 sepatime0 0 0
4.0
Stat(MathOptInterface.OPTIMAL, 4.0, 4.0, 0.0, 0.0, 0.897341, 0.019622087478637695, 1, Main.CFLG.LEFP, "", #undef)
